NAME : problems/30-tsp/instance-24.tsp
COMMENT : No Comment
TYPE : TSP
DIMENSION: 30
EDGE_WEIGHT_TYPE : EUC_2D
NODE_COORD_SECTION
1 355 8268 
2 7331 3796 
3 7517 8950 
4 5391 427 
5 3249 8002 
6 8930 1573 
7 2249 56 
8 7866 3603 
9 1455 667 
10 9255 9422 
11 1538 5030 
12 6658 2780 
13 1244 3467 
14 9883 3737 
15 140 5188 
16 4694 1416 
17 6771 2964 
18 9526 4672 
19 3318 5471 
20 7492 6280 
21 8133 6894 
22 9869 8681 
23 7283 8235 
24 9583 3066 
25 9525 8851 
26 39 9614 
27 4328 7779 
28 4471 2603 
29 5928 9223 
30 6580 5134 
EOF
